Gurobi Optimizer version 9.1.2 build v9.1.2rc0 (linux64)
Thread count: 36 physical cores, 72 logical processors, using up to 32 threads
Optimize a model with 12 rows, 57 columns and 590 nonzeros
Model fingerprint: 0xf32eec78
Model has 47 quadratic constraints
Coefficient statistics:
  Matrix range     [2e-05, 3e+00]
  QMatrix range    [1e+00, 1e+00]
  QLMatrix range   [1e+00, 1e+00]
  Objective range  [8e-03, 7e-01]
  Bounds range     [1e+00, 1e+00]
  RHS range        [1e+00, 1e+00]
Presolve removed 9 rows and 0 columns

Continuous model is non-convex -- solving as a MIP.

Presolve removed 9 rows and 0 columns
Presolve time: 0.00s
Presolved: 189 rows, 57 columns, 443 nonzeros
Presolved model has 47 bilinear constraint(s)
Variable types: 57 continuous, 0 integer (0 binary)

Root relaxation: objective -1.743721e+00, 44 iterations, 0.00 seconds

    Nodes    |    Current Node    |     Objective Bounds      |     Work
 Expl Unexpl |  Obj  Depth IntInf | Incumbent    BestBd   Gap | It/Node Time

     0     0   -1.74372    0   38          -   -1.74372      -     -    0s
H    0     0                       0.6147548   -1.74372   384%     -    0s
     0     0   -1.64739    0    1    0.61475   -1.64739   368%     -    0s
H    0     0                      -1.6450460   -1.64739  0.14%     -    0s
     0     0     cutoff    0        -1.64505   -1.64505  0.00%     -    0s

Cutting planes:
  RLT: 25
  BQP: 3

Explored 1 nodes (76 simplex iterations) in 0.01 seconds
Thread count was 32 (of 72 available processors)

Solution count 2: -1.64505 0.614755 
No other solutions better than -1.64505

Optimal solution found (tolerance 1.00e-04)
Best objective -1.645045978473e+00, best bound -1.645045978473e+00, gap 0.0000%

User-callback calls 78, time in user-callback 0.00 sec
Gurobi Optimizer version 9.1.2 build v9.1.2rc0 (linux64)
Thread count: 36 physical cores, 72 logical processors, using up to 32 threads
Optimize a model with 24 rows, 125 columns and 2580 nonzeros
Model fingerprint: 0x74acd05d
Model has 105 quadratic constraints
Coefficient statistics:
  Matrix range     [6e-06, 5e+01]
  QMatrix range    [1e+00, 1e+00]
  QLMatrix range   [1e+00, 1e+00]
  Objective range  [1e-02, 1e+00]
  Bounds range     [1e+00, 1e+00]
  RHS range        [1e+00, 1e+00]
Presolve removed 10 rows and 0 columns

Continuous model is non-convex -- solving as a MIP.

Presolve removed 10 rows and 0 columns
Presolve time: 0.00s
Presolved: 429 rows, 125 columns, 2142 nonzeros
Presolved model has 105 bilinear constraint(s)
Variable types: 125 continuous, 0 integer (0 binary)

Root relaxation: objective -5.682030e+00, 145 iterations, 0.00 seconds

    Nodes    |    Current Node    |     Objective Bounds      |     Work
 Expl Unexpl |  Obj  Depth IntInf | Incumbent    BestBd   Gap | It/Node Time

     0     0   -5.68203    0   95          -   -5.68203      -     -    0s
H    0     0                       0.2015713   -5.68203  2919%     -    0s
     0     0   -4.65278    0   83    0.20157   -4.65278  2408%     -    0s
H    0     0                      -2.2183487   -4.65278   110%     -    0s
     0     0   -4.56797    0   83   -2.21835   -4.56797   106%     -    0s
     0     0   -4.44356    0   69   -2.21835   -4.44356   100%     -    0s
     0     0   -4.43863    0   69   -2.21835   -4.43863   100%     -    0s
     0     0   -4.39664    0   82   -2.21835   -4.39664  98.2%     -    0s
     0     0   -4.39394    0   69   -2.21835   -4.39394  98.1%     -    0s
     0     0   -4.38979    0   69   -2.21835   -4.38979  97.9%     -    0s
     0     0   -4.38910    0   69   -2.21835   -4.38910  97.9%     -    0s
     0     0   -4.38893    0   69   -2.21835   -4.38893  97.8%     -    0s
     0     0   -4.38880    0   69   -2.21835   -4.38880  97.8%     -    0s
     0     0   -4.38788    0   69   -2.21835   -4.38788  97.8%     -    0s
H    0     0                      -3.0904113   -4.38788  42.0%     -    0s
H    0     0                      -3.3985215   -4.38788  29.1%     -    0s
H    0     0                      -3.4690938   -4.38788  26.5%     -    0s
H    0     0                      -3.6049892   -4.38788  21.7%     -    0s
     0     2   -4.38788    0   69   -3.60499   -4.38788  21.7%     -    0s
*  604   223              22      -3.6155471   -4.03988  11.7%  32.1    0s
*  606   223              23      -3.6165846   -4.03988  11.7%  32.0    0s
*  686   223              24      -3.6198780   -4.03988  11.6%  30.1    0s
*  702   278              19      -3.6199301   -4.03988  11.6%  29.6    0s
*  816   278              22      -3.6803817   -4.03988  9.77%  27.4    0s
*  817   278              22      -3.6803880   -4.03988  9.77%  27.4    0s
*  889   264              25      -3.6874435   -3.93520  6.72%  26.0    0s
* 1015   264              27      -3.7012388   -3.93520  6.32%  24.0    0s
* 1085   285              26      -3.7208141   -3.88503  4.41%  23.3    0s
* 1141   285              21      -3.7300609   -3.88503  4.15%  22.7    0s
* 1149   285              22      -3.7339417   -3.88503  4.05%  22.6    0s
* 1343    50              17      -3.7341572   -3.75976  0.69%  20.5    0s
* 1593    18              19      -3.7352396   -3.75976  0.66%  17.5    0s
* 1600    18              20      -3.7352448   -3.75976  0.66%  17.5    0s

Cutting planes:
  RLT: 58
  BQP: 6
  PSD: 48

Explored 1670 nodes (28602 simplex iterations) in 0.54 seconds
Thread count was 32 (of 72 available processors)

Solution count 10: -3.73524 -3.73524 -3.73416 ... -3.68038
No other solutions better than -3.73524

Optimal solution found (tolerance 1.00e-04)
Best objective -3.735244775316e+00, best bound -3.735244775316e+00, gap 0.0000%

User-callback calls 3625, time in user-callback 0.00 sec



objective value: -3.735244775316018
objective bound: -3.735244775316018
x_opt: [0.0, 0.0, 1.0, 0.0, 1.0, 0.671554682789035, 1.0, 1.0, 1.0, 0.0, 0.0, 0.19782110161342822, 0.0, 0.0, 0.0, 0.4940541717952644, 0.0, 0.0, 0.005517301964108608, 0.0]
GUROBI solution time: 0.5394399166107178




